DIMACS_lns/graph-1000-660.col
p edge 1000 1849
e 1 69
e 1 329
e 1 155
e 3 984
e 3 459
e 3 591
e 3 547
e 4 538
e 4 953
e 4 650
e 4 647
e 5 70
e 5 115
e 5 756
e 5 672
e 6 914
e 6 243
e 6 347
e 6 44
e 6 596
e 8 57
e 8 59
e 8 464
e 8 349
e 8 649
e 9 125
e 9 157
e 9 76
e 9 807
e 10 211
e 10 961
e 10 492
e 10 280
e 10 369
e 10 207
e 10 977
e 10 946
e 11 668
e 11 981
e 11 710
e 11 474
e 12 379
e 12 350
e 12 120
e 12 265
e 12 418
e 13 799
e 13 139
e 13 710
e 14 780
e 14 321
e 14 47
e 15 392
e 15 473
e 15 762
e 15 530
e 18 623
e 18 664
e 18 928
e 22 31
e 22 346
e 22 352
e 22 160
e 23 940
e 23 618
e 23 938
e 23 240
e 24 54
e 24 831
e 24 350
e 24 918
e 24 729
e 24 906
e 24 777
e 25 983
e 25 866
e 25 264
e 26 564
e 26 927
e 26 570
e 26 396
e 26 532
e 27 750
e 27 203
e 27 310
e 28 107
e 28 733
e 28 396
e 28 175
e 28 523
e 28 739
e 28 977
e 28 343
e 29 724
e 29 431
e 29 135
e 30 895
e 30 94
e 30 277
e 30 180
e 31 460
e 31 129
e 32 869
e 32 961
e 32 450
e 32 139
e 32 726
e 35 322
e 35 902
e 35 704
e 35 69
e 37 38
e 37 851
e 37 220
e 38 471
e 38 369
e 39 129
e 39 808
e 39 420
e 39 860
e 39 77
e 40 689
e 40 647
e 40 380
e 40 561
e 41 520
e 41 570
e 41 354
e 41 606
e 42 301
e 42 976
e 42 463
e 44 668
e 44 677
e 44 601
e 45 214
e 45 227
e 45 458
e 45 916
e 45 230
e 45 799
e 45 53
e 47 508
e 47 232
e 47 392
e 47 513
e 47 335
e 47 188
e 47 340
e 49 802
e 49 681
e 49 612
e 50 178
e 50 819
e 50 102
e 50 359
e 51 790
e 51 435
e 51 870
e 51 333
e 51 995
e 53 141
e 53 353
e 53 89
e 53 827
e 53 359
e 53 367
e 54 953
e 54 420
e 54 832
e 56 509
e 56 243
e 56 174
e 56 759
e 56 77
e 56 558
e 56 536
e 56 175
e 57 289
e 57 811
e 57 625
e 57 294
e 58 265
e 58 488
e 58 173
e 58 827
e 58 505
e 59 155
e 59 120
e 59 95
e 59 74
e 59 444
e 60 396
e 60 995
e 60 993
e 60 290
e 60 971
e 60 945
e 60 816
e 61 590
e 61 228
e 61 817
e 61 651
e 62 658
e 62 639
e 62 833
e 62 347
e 63 428
e 63 571
e 63 775
e 64 222
e 64 676
e 64 960
e 65 954
e 65 298
e 65 873
e 67 637
e 67 812
e 67 174
e 67 333
e 68 694
e 68 425
e 68 856
e 69 229
e 69 398
e 69 607
e 69 822
e 70 692
e 70 812
e 70 781
e 70 306
e 70 562
e 70 841
e 72 210
e 72 446
e 72 451
e 72 416
e 72 87
e 74 338
e 74 446
e 74 355
e 74 352
e 74 299
e 75 259
e 75 132
e 75 182
e 75 862
e 75 362
e 76 941
e 76 410
e 76 493
e 76 988
e 76 232
e 76 203
e 77 718
e 77 182
e 77 400
e 77 106
e 78 642
e 78 377
e 78 681
e 79 161
e 79 653
e 79 158
e 79 759
e 79 694
e 79 532
e 80 358
e 80 234
e 80 631
e 80 706
e 80 754
e 84 882
e 84 570
e 84 457
e 84 127
e 85 198
e 85 894
e 85 494
e 86 626
e 86 909
e 86 356
e 87 936
e 87 387
e 88 883
e 88 244
e 88 879
e 88 888
e 88 578
e 88 597
e 89 489
e 89 360
e 90 280
e 90 179
e 90 610
e 90 315
e 90 676
e 91 557
e 91 848
e 91 587
e 91 263
e 94 570
e 94 440
e 94 854
e 94 180
e 95 492
e 95 106
e 95 705
e 95 533
e 95 894
e 95 788
e 95 406
e 96 217
e 96 457
e 96 147
e 96 413
e 96 954
e 97 622
e 97 672
e 97 202
e 97 363
e 100 858
e 100 527
e 100 630
e 101 199
e 101 412
e 101 680
e 101 520
e 101 919
e 101 105
e 102 320
e 102 932
e 102 756
e 102 224
e 102 256
e 102 711
e 102 575
e 103 687
e 103 333
e 103 430
e 103 882
e 103 106
e 104 682
e 104 107
e 104 162
e 105 671
e 105 411
e 105 146
e 106 498
e 106 288
e 106 346
e 106 639
e 106 637
e 107 644
e 107 683
e 108 243
e 108 674
e 108 374
e 108 294
e 108 785
e 109 940
e 109 703
e 109 745
e 109 224
e 109 802
e 109 510
e 109 900
e 110 858
e 110 246
e 110 704
e 110 572
e 111 994
e 111 473
e 111 273
e 111 198
e 111 265
e 111 817
e 111 454
e 113 305
e 113 766
e 113 623
e 113 317
e 113 848
e 113 166
e 113 421
e 114 344
e 114 667
e 114 670
e 114 796
e 114 620
e 115 302
e 115 642
e 116 513
e 116 590
e 116 550
e 117 477
e 117 911
e 117 758
e 117 638
e 117 895
e 119 989
e 119 535
e 119 321
e 119 729
e 120 841
e 120 125
e 120 694
e 120 386
e 120 232
e 122 976
e 122 682
e 122 742
e 122 930
e 122 701
e 122 527
e 124 137
e 124 198
e 124 586
e 124 495
e 124 501
e 124 436
e 125 279
e 125 718
e 125 497
e 126 310
e 126 793
e 126 536
e 126 476
e 126 384
e 126 211
e 126 217
e 127 267
e 127 594
e 128 755
e 128 174
e 128 533
e 129 637
e 129 651
e 129 255
e 129 362
e 129 965
e 130 656
e 130 932
e 130 871
e 130 851
e 132 602
e 132 277
e 132 802
e 132 747
e 132 152
e 134 552
e 134 939
e 134 946
e 134 724
e 135 363
e 135 457
e 136 149
e 136 776
e 136 446
e 137 872
e 137 652
e 137 439
e 137 974
e 138 726
e 138 877
e 138 255
e 138 188
e 138 626
e 139 781
e 139 191
e 139 683
e 139 596
e 141 643
e 141 653
e 141 535
e 141 448
e 141 841
e 141 904
e 142 888
e 142 236
e 142 831
e 142 249
e 142 322
e 142 911
e 142 569
e 143 259
e 143 918
e 143 696
e 143 353
e 143 841
e 145 215
e 145 401
e 145 746
e 145 616
e 146 738
e 146 643
e 146 561
e 146 438
e 146 500
e 146 870
e 146 881
e 146 847
e 147 250
e 147 971
e 147 353
e 147 763
e 147 872
e 147 187
e 147 859
e 148 823
e 148 882
e 148 427
e 148 671
e 148 678
e 148 709
e 148 904
e 149 415
e 149 651
e 150 621
e 150 220
e 150 915
e 150 814
e 150 682
e 150 743
e 150 565
e 151 511
e 151 161
e 151 310
e 151 332
e 151 315
e 152 241
e 152 971
e 153 547
e 153 776
e 153 238
e 153 380
e 153 478
e 154 262
e 154 857
e 154 352
e 154 183
e 155 243
e 155 305
e 155 718
e 156 866
e 156 216
e 156 683
e 156 563
e 156 893
e 156 834
e 157 531
e 157 544
e 158 729
e 158 263
e 159 859
e 159 983
e 159 376
e 159 258
e 159 380
e 160 610
e 160 675
e 160 202
e 160 537
e 160 467
e 160 594
e 160 238
e 161 621
e 161 636
e 162 638
e 162 832
e 163 615
e 163 644
e 163 630
e 163 876
e 165 578
e 165 194
e 165 587
e 165 934
e 165 748
e 166 791
e 166 688
e 166 167
e 167 659
e 167 390
e 167 841
e 169 268
e 169 830
e 169 704
e 172 427
e 172 888
e 172 511
e 173 371
e 173 438
e 173 250
e 173 454
e 173 175
e 174 649
e 174 386
e 174 349
e 174 925
e 174 518
e 174 685
e 174 380
e 175 982
e 175 384
e 175 572
e 175 444
e 175 541
e 177 277
e 177 507
e 177 953
e 177 620
e 177 654
e 177 639
e 177 679
e 178 442
e 178 672
e 178 375
e 178 597
e 179 224
e 179 904
e 179 628
e 179 771
e 180 411
e 180 658
e 180 302
e 180 639
e 182 440
e 182 921
e 182 784
e 182 460
e 182 282
e 183 595
e 183 704
e 184 719
e 184 305
e 184 243
e 184 251
e 184 206
e 184 382
e 184 319
e 185 259
e 185 317
e 185 788
e 187 210
e 187 620
e 187 856
e 188 995
e 188 288
e 188 685
e 190 412
e 190 488
e 190 621
e 190 343
e 191 864
e 191 441
e 191 522
e 193 883
e 193 373
e 193 552
e 193 336
e 194 895
e 194 569
e 194 928
e 198 429
e 199 257
e 199 565
e 199 988
e 201 462
e 201 406
e 201 243
e 202 968
e 202 533
e 202 284
e 203 666
e 205 598
e 205 812
e 205 642
e 205 572
e 205 603
e 205 498
e 205 853
e 206 755
e 206 839
e 206 872
e 206 575
e 207 569
e 207 299
e 207 222
e 210 232
e 210 762
e 211 277
e 211 433
e 211 906
e 212 755
e 212 298
e 212 702
e 213 478
e 213 857
e 213 819
e 214 333
e 214 737
e 214 452
e 214 607
e 214 935
e 214 703
e 214 666
e 215 816
e 215 450
e 216 455
e 216 496
e 216 394
e 216 502
e 217 476
e 217 428
e 217 713
e 219 674
e 219 248
e 219 331
e 219 739
e 220 492
e 220 690
e 220 894
e 220 562
e 222 545
e 222 264
e 222 566
e 222 392
e 222 258
e 223 832
e 223 362
e 223 739
e 224 668
e 224 271
e 224 348
e 224 788
e 224 465
e 227 916
e 227 389
e 228 486
e 228 994
e 228 488
e 229 261
e 229 335
e 229 618
e 230 440
e 230 811
e 231 661
e 231 819
e 231 566
e 231 626
e 231 277
e 232 370
e 232 540
e 234 502
e 234 517
e 234 973
e 236 950
e 236 883
e 236 922
e 236 726
e 236 260
e 236 459
e 238 299
e 238 473
e 238 518
e 238 317
e 238 588
e 239 898
e 239 894
e 239 513
e 240 576
e 240 858
e 240 257
e 240 999
e 241 419
e 241 977
e 241 686
e 243 989
e 243 425
e 243 969
e 244 726
e 244 974
e 244 670
e 244 979
e 245 394
e 245 678
e 245 723
e 245 682
e 246 277
e 246 894
e 246 273
e 247 866
e 247 413
e 247 974
e 247 487
e 248 418
e 248 438
e 248 965
e 249 850
e 249 514
e 250 799
e 250 638
e 251 898
e 251 260
e 251 645
e 252 397
e 252 503
e 252 445
e 252 384
e 253 701
e 253 429
e 253 796
e 254 490
e 254 648
e 254 934
e 254 488
e 255 703
e 255 818
e 255 777
e 255 456
e 256 777
e 256 654
e 257 657
e 257 346
e 257 789
e 258 413
e 260 976
e 260 906
e 261 457
e 261 519
e 262 814
e 262 680
e 263 776
e 264 314
e 264 810
e 265 273
e 265 290
e 267 900
e 267 301
e 267 735
e 267 851
e 267 457
e 267 588
e 268 977
e 268 487
e 268 332
e 268 530
e 268 387
e 268 601
e 271 588
e 271 456
e 271 599
e 273 877
e 273 768
e 273 922
e 273 360
e 273 496
e 273 758
e 274 635
e 274 746
e 274 391
e 276 492
e 276 324
e 276 351
e 276 568
e 276 406
e 277 960
e 277 428
e 279 737
e 279 793
e 279 587
e 280 833
e 280 305
e 280 898
e 280 821
e 280 925
e 280 320
e 280 519
e 280 654
e 282 883
e 282 702
e 282 348
e 284 599
e 284 840
e 284 661
e 284 392
e 285 498
e 285 645
e 285 713
e 286 780
e 286 564
e 286 630
e 286 421
e 288 926
e 288 683
e 289 929
e 289 907
e 289 578
e 290 864
e 294 691
e 294 741
e 294 573
e 297 602
e 297 685
e 297 301
e 297 432
e 297 617
e 297 667
e 297 486
e 297 577
e 297 655
e 298 870
e 298 992
e 298 945
e 299 860
e 299 804
e 301 389
e 301 416
e 301 759
e 302 459
e 305 682
e 305 965
e 305 678
e 305 866
e 305 981
e 306 336
e 306 729
e 306 913
e 307 608
e 307 929
e 307 775
e 307 477
e 307 498
e 310 550
e 310 612
e 310 831
e 311 961
e 311 753
e 311 617
e 311 395
e 312 556
e 312 384
e 312 477
e 313 647
e 313 749
e 313 758
e 314 922
e 314 889
e 314 599
e 315 945
e 315 574
e 316 509
e 316 616
e 316 759
e 316 919
e 316 796
e 317 379
e 317 799
e 319 569
e 319 749
e 320 867
e 320 643
e 320 606
e 321 477
e 321 991
e 321 542
e 321 448
e 322 440
e 322 936
e 324 979
e 324 688
e 325 882
e 325 757
e 325 533
e 325 562
e 325 474
e 327 875
e 327 744
e 327 446
e 329 932
e 329 744
e 331 363
e 331 542
e 331 921
e 331 814
e 331 687
e 331 355
e 332 558
e 333 486
e 335 877
e 335 475
e 335 775
e 335 705
e 336 882
e 336 374
e 337 860
e 337 421
e 337 907
e 338 450
e 338 631
e 340 683
e 340 777
e 343 578
e 343 847
e 343 836
e 343 689
e 344 523
e 344 461
e 344 525
e 344 420
e 345 436
e 345 746
e 345 360
e 346 795
e 347 734
e 347 397
e 347 462
e 347 869
e 347 463
e 348 644
e 348 648
e 348 602
e 348 508
e 349 390
e 349 405
e 349 573
e 349 488
e 349 830
e 350 681
e 351 556
e 351 926
e 351 614
e 351 967
e 352 702
e 352 583
e 352 925
e 352 977
e 353 575
e 353 856
e 353 684
e 353 835
e 354 988
e 354 547
e 355 744
e 355 415
e 355 969
e 355 572
e 355 619
e 355 943
e 356 753
e 356 444
e 356 676
e 358 989
e 358 946
e 358 934
e 359 473
e 359 439
e 360 528
e 360 783
e 360 686
e 363 741
e 363 411
e 363 780
e 363 876
e 363 768
e 367 656
e 367 371
e 367 892
e 367 881
e 367 440
e 369 571
e 370 441
e 370 538
e 370 409
e 370 737
e 371 877
e 373 454
e 373 706
e 373 436
e 373 422
e 373 500
e 374 817
e 374 790
e 374 538
e 374 571
e 375 539
e 375 628
e 375 391
e 375 932
e 375 642
e 376 649
e 376 665
e 377 616
e 377 684
e 377 759
e 378 435
e 378 584
e 378 640
e 378 694
e 379 875
e 379 410
e 379 606
e 380 386
e 381 569
e 381 964
e 381 983
e 381 903
e 382 807
e 382 819
e 382 834
e 383 837
e 383 810
e 383 945
e 383 713
e 383 404
e 384 591
e 384 673
e 384 706
e 384 398
e 384 491
e 386 737
e 386 869
e 386 424
e 386 675
e 387 620
e 387 779
e 387 394
e 387 898
e 387 976
e 387 928
e 387 523
e 389 677
e 389 617
e 389 943
e 389 911
e 390 693
e 390 754
e 390 539
e 390 501
e 390 599
e 391 527
e 391 510
e 391 954
e 392 889
e 394 939
e 394 452
e 395 744
e 395 780
e 396 494
e 396 724
e 396 779
e 397 670
e 397 781
e 397 683
e 398 998
e 398 712
e 398 562
e 398 958
e 398 755
e 399 523
e 399 544
e 399 757
e 399 914
e 399 845
e 399 830
e 400 911
e 400 598
e 400 712
e 401 507
e 401 703
e 401 907
e 401 616
e 401 598
e 404 671
e 404 676
e 405 654
e 405 491
e 405 525
e 405 477
e 407 675
e 407 448
e 407 944
e 409 569
e 409 477
e 409 854
e 409 427
e 409 971
e 410 456
e 410 643
e 410 418
e 410 702
e 411 591
e 411 835
e 411 645
e 412 464
e 412 779
e 413 497
e 413 915
e 415 616
e 415 802
e 415 629
e 416 595
e 416 770
e 416 837
e 416 889
e 416 808
e 418 516
e 418 617
e 419 749
e 419 435
e 420 730
e 420 982
e 420 935
e 421 467
e 421 793
e 422 702
e 422 978
e 422 553
e 424 626
e 424 594
e 425 910
e 428 781
e 428 927
e 429 902
e 429 827
e 429 903
e 429 639
e 429 770
e 429 943
e 430 790
e 430 711
e 430 481
e 431 476
e 431 730
e 431 928
e 431 831
e 432 771
e 432 502
e 432 534
e 432 499
e 433 730
e 433 810
e 435 961
e 435 791
e 435 561
e 436 589
e 436 725
e 436 684
e 438 704
e 439 562
e 439 836
e 440 487
e 441 864
e 441 621
e 441 780
e 442 668
e 442 654
e 443 561
e 443 748
e 443 522
e 444 610
e 444 717
e 444 926
e 444 659
e 444 902
e 445 957
e 445 564
e 445 945
e 445 552
e 445 542
e 446 763
e 446 859
e 448 915
e 448 658
e 448 577
e 449 869
e 449 771
e 449 895
e 450 497
e 450 621
e 450 907
e 450 876
e 450 926
e 451 871
e 451 979
e 451 465
e 451 531
e 451 540
e 452 873
e 452 677
e 452 455
e 452 817
e 452 762
e 454 855
e 454 881
e 454 784
e 454 866
e 455 520
e 456 932
e 457 864
e 457 777
e 457 706
e 458 607
e 458 616
e 458 612
e 458 991
e 459 895
e 459 932
e 460 890
e 461 723
e 461 945
e 461 610
e 461 766
e 462 944
e 462 830
e 462 745
e 463 785
e 463 929
e 464 890
e 464 811
e 464 804
e 464 489
e 465 505
e 465 631
e 465 777
e 467 488
e 467 820
e 467 836
e 470 777
e 470 612
e 470 721
e 470 766
e 471 978
e 471 690
e 471 655
e 471 961
e 473 737
e 474 631
e 474 632
e 475 532
e 475 538
e 475 563
e 476 526
e 477 958
e 478 783
e 479 839
e 479 576
e 479 739
e 481 629
e 481 992
e 482 950
e 482 790
e 482 673
e 485 857
e 485 510
e 485 541
e 486 713
e 486 506
e 487 693
e 488 910
e 488 587
e 488 859
e 489 508
e 489 562
e 489 719
e 490 635
e 490 717
e 491 915
e 492 858
e 493 597
e 493 927
e 493 869
e 494 879
e 495 737
e 495 900
e 495 756
e 495 655
e 495 681
e 496 778
e 496 856
e 497 944
e 498 574
e 498 944
e 499 612
e 499 623
e 500 847
e 500 612
e 500 534
e 501 820
e 501 709
e 502 741
e 503 604
e 503 749
e 503 573
e 503 883
e 505 919
e 505 671
e 505 620
e 506 854
e 506 981
e 506 553
e 506 882
e 507 774
e 507 745
e 507 881
e 507 880
e 507 913
e 508 890
e 508 616
e 508 526
e 509 806
e 509 913
e 509 989
e 510 626
e 510 653
e 510 770
e 511 684
e 511 930
e 511 563
e 513 527
e 513 577
e 514 594
e 514 550
e 514 839
e 516 780
e 516 871
e 516 694
e 516 882
e 517 875
e 517 901
e 518 704
e 518 723
e 518 654
e 518 528
e 519 759
e 519 659
e 519 578
e 520 706
e 521 537
e 521 941
e 521 685
e 521 826
e 522 721
e 522 599
e 523 779
e 523 950
e 523 706
e 523 547
e 523 616
e 525 790
e 525 921
e 525 849
e 525 961
e 525 906
e 526 804
e 526 835
e 527 687
e 528 902
e 528 744
e 530 622
e 530 645
e 530 543
e 531 735
e 531 675
e 532 642
e 532 889
e 532 880
e 533 811
e 534 550
e 535 745
e 535 893
e 536 961
e 537 768
e 538 884
e 539 967
e 539 831
e 539 965
e 540 881
e 540 748
e 541 808
e 542 545
e 542 827
e 542 595
e 543 943
e 543 687
e 543 619
e 544 590
e 544 833
e 545 757
e 547 637
e 547 818
e 547 747
e 547 628
e 553 873
e 556 883
e 556 900
e 557 751
e 557 734
e 557 922
e 557 601
e 557 603
e 557 735
e 557 860
e 558 823
e 559 973
e 559 718
e 559 775
e 561 845
e 562 834
e 563 623
e 563 626
e 563 833
e 564 607
e 564 983
e 565 955
e 565 749
e 565 820
e 565 796
e 566 898
e 568 967
e 568 911
e 568 572
e 569 664
e 569 632
e 569 883
e 570 958
e 570 914
e 570 639
e 570 929
e 570 712
e 572 978
e 572 651
e 572 734
e 573 791
e 573 725
e 574 984
e 575 635
e 576 649
e 577 588
e 578 727
e 578 818
e 583 747
e 583 786
e 583 901
e 584 898
e 584 972
e 585 840
e 585 597
e 585 724
e 585 629
e 586 615
e 586 607
e 587 888
e 588 881
e 588 751
e 589 713
e 589 884
e 590 999
e 591 898
e 591 888
e 591 955
e 594 818
e 595 848
e 595 629
e 596 670
e 596 678
e 597 821
e 599 612
e 601 710
e 602 839
e 603 683
e 603 742
e 603 724
e 604 789
e 604 705
e 606 876
e 606 653
e 607 967
e 607 696
e 608 796
e 608 648
e 610 903
e 610 613
e 610 697
e 610 969
e 612 850
e 612 784
e 613 939
e 613 666
e 613 910
e 613 672
e 614 703
e 614 692
e 614 795
e 615 957
e 616 745
e 616 706
e 616 696
e 616 678
e 618 650
e 618 980
e 619 785
e 622 998
e 622 992
e 625 726
e 625 902
e 626 637
e 626 709
e 629 661
e 629 839
e 630 657
e 630 997
e 630 684
e 631 837
e 632 754
e 635 725
e 635 932
e 636 675
e 636 656
e 636 691
e 637 674
e 638 746
e 639 991
e 639 679
e 640 795
e 640 893
e 642 847
e 642 972
e 643 741
e 648 746
e 649 786
e 650 675
e 650 744
e 651 652
e 652 901
e 653 938
e 654 750
e 654 672
e 656 665
e 656 751
e 656 742
e 656 972
e 657 964
e 657 729
e 658 890
e 659 802
e 659 750
e 664 701
e 664 909
e 665 742
e 665 964
e 666 739
e 667 928
e 667 882
e 668 811
e 668 986
e 668 701
e 668 804
e 673 832
e 673 992
e 674 744
e 676 686
e 676 986
e 677 872
e 678 941
e 678 894
e 679 926
e 680 775
e 682 895
e 683 979
e 684 693
e 684 941
e 684 862
e 685 783
e 686 721
e 686 733
e 687 818
e 688 984
e 689 802
e 689 758
e 690 754
e 691 922
e 691 941
e 691 978
e 691 934
e 692 976
e 692 729
e 693 927
e 694 930
e 694 743
e 694 795
e 694 981
e 694 889
e 696 867
e 697 941
e 697 991
e 701 894
e 701 833
e 703 819
e 706 806
e 706 882
e 709 882
e 711 995
e 711 911
e 713 946
e 713 916
e 713 973
e 717 927
e 719 806
e 719 936
e 719 988
e 721 943
e 721 934
e 721 982
e 725 988
e 726 727
e 727 749
e 727 974
e 727 768
e 727 796
e 727 841
e 729 968
e 729 909
e 730 900
e 733 974
e 734 927
e 734 795
e 734 756
e 735 811
e 737 738
e 738 969
e 741 971
e 741 859
e 742 941
e 743 866
e 743 940
e 743 893
e 744 857
e 746 880
e 746 935
e 748 840
e 749 925
e 750 753
e 751 958
e 751 791
e 751 976
e 753 873
e 753 958
e 753 987
e 753 904
e 754 960
e 755 913
e 755 906
e 756 930
e 759 789
e 762 851
e 763 914
e 766 914
e 768 786
e 770 922
e 774 921
e 774 894
e 775 997
e 775 916
e 777 980
e 778 821
e 778 839
e 780 932
e 783 837
e 784 965
e 784 987
e 788 823
e 791 987
e 795 859
e 795 918
e 795 993
e 796 982
e 796 834
e 807 932
e 808 862
e 808 938
e 810 901
e 810 980
e 811 994
e 814 901
e 816 979
e 820 921
e 820 826
e 821 857
e 822 964
e 822 914
e 823 892
e 823 988
e 826 994
e 826 958
e 826 873
e 827 987
e 827 849
e 832 833
e 836 957
e 840 884
e 845 972
e 847 958
e 849 915
e 850 859
e 853 997
e 853 915
e 855 916
e 855 993
e 855 974
e 856 957
e 857 983
e 859 977
e 862 900
e 862 998
e 864 892
e 864 873
e 867 916
e 869 936
e 871 914
e 871 955
e 876 999
e 876 939
e 877 935
e 879 925
e 880 950
e 882 916
e 882 888
e 882 965
e 888 969
e 889 955
e 901 997
e 901 986
e 903 943
e 904 946
e 906 928
e 907 922
e 914 998
e 915 998
e 921 976
e 928 972
e 930 953
e 935 938
e 938 999
e 940 979
e 944 971
e 968 969
e 979 998
